peakDumbCharging = 7400; 
Machine = anon_enum(16); 
machineSpeed = [3700,3700,3700,3700,3700,3700,3700,3700,3700,3700,3700,3700,3700,3700,3700,3700]; 
machineLoad = [3700,3700,3700,3700,3700,3700,3700,3700,3700,3700,3700,3700,3700,3700,3700,3700]; 
Car = anon_enum(7); 
demandCar = [13720,5280,12480,6640,5200,8200,4000]; 
arrivalCar = [79,63,60,57,56,45,40]; 
departureCar = [84,67,68,62,60,49,42]; 
